# Objective value = 38.0
xobj 38.0
x0_r1 -0.0
x1_r1 0.0
x2_r1 0.0
x3_r1 -0.0
y0_r1 -0.0
y1_r1 -0.0
y2_r1 -0.0
y3_r1 0.0
SH0_r1 -0.0
SL0_r1 -0.0
x4_r1 -0.0
x5_r1 -0.0
x6_r1 0.0
x7_r1 -0.0
y4_r1 -0.0
y5_r1 -0.0
y6_r1 -0.0
y7_r1 0.0
SH1_r1 -0.0
SL1_r1 0.0
x8_r1 0.0
x9_r1 -0.0
x10_r1 -0.0
x11_r1 -0.0
y8_r1 -0.0
y9_r1 -0.0
y10_r1 -0.0
y11_r1 -0.0
SH2_r1 -0.0
SL2_r1 -0.0
x12_r1 1.0
x13_r1 1.0
x14_r1 1.0
x15_r1 1.0
y12_r1 0.0
y13_r1 -8.470329472543003e-22
y14_r1 -0.0
y15_r1 0.9999999999999996
SH3_r1 1.0
SL3_r1 -0.0
x16_r1 -0.0
x17_r1 -0.0
x18_r1 -0.0
x19_r1 -0.0
y16_r1 -0.0
y17_r1 2.497984864747657e-16
y18_r1 -0.0
y19_r1 1.3877703104519731e-16
SH4_r1 1.5265481885301177e-16
SL4_r1 -0.0
x20_r1 -0.0
x21_r1 -0.0
x22_r1 -0.0
x23_r1 9.367475006539236e-17
y20_r1 -0.0
y21_r1 -0.0
y22_r1 -0.0
y23_r1 9.367485594451077e-17
SH5_r1 9.367485594451077e-17
SL5_r1 -0.0
x24_r1 -0.0
x25_r1 -0.0
x26_r1 0.0
x27_r1 -0.0
y24_r1 -0.0
y25_r1 -0.0
y26_r1 -0.0
y27_r1 -0.0
SH6_r1 -0.0
SL6_r1 -0.0
x28_r1 -0.0
x29_r1 -0.0
x30_r1 0.0
x31_r1 -0.0
y28_r1 -0.0
y29_r1 0.0
y30_r1 -0.0
y31_r1 -0.0
SH7_r1 0.0
SL7_r1 -0.0
x32_r1 -0.0
x33_r1 -0.0
x34_r1 -0.0
x35_r1 -0.0
y32_r1 8.673544587990131e-18
y33_r1 2.7755337387612498e-17
y34_r1 -0.0
y35_r1 0.0
SH8_r1 9.324065891481433e-18
SL8_r1 -0.0
x36_r1 -0.0
x37_r1 -0.0
x38_r1 0.0
x39_r1 -0.0
y36_r1 -0.0
y37_r1 -0.0
y38_r1 -0.0
y39_r1 0.0
SH9_r1 0.0
SL9_r1 -0.0
x40_r1 -0.0
x41_r1 -0.0
x42_r1 -0.0
x43_r1 -0.0
y40_r1 -0.0
y41_r1 -0.0
y42_r1 -0.0
y43_r1 -0.0
SH10_r1 -0.0
SL10_r1 -0.0
x44_r1 -0.0
x45_r1 0.0
x46_r1 -0.0
x47_r1 -0.0
y44_r1 -0.0
y45_r1 0.0
y46_r1 -0.0
y47_r1 -0.0
SH11_r1 0.0
SL11_r1 -0.0
x48_r1 0.0
x49_r1 0.0
x50_r1 0.0
x51_r1 0.0
y48_r1 -0.0
y49_r1 -0.0
y50_r1 -0.0
y51_r1 -0.0
SH12_r1 0.0
SL12_r1 -0.0
x52_r1 -0.0
x53_r1 5.2042339554014654e-17
x54_r1 8.32676268193932e-17
x55_r1 -0.0
y52_r1 -0.0
y53_r1 3.64299606191214e-17
y54_r1 -0.0
y55_r1 2.1510804036172903e-16
SH13_r1 1.1449291408477174e-16
SL13_r1 -0.0
x56_r1 -0.0
x57_r1 7.133785597158602e-17
x58_r1 -0.0
x59_r1 -0.0
y56_r1 -1.4267571194317204e-16
y57_r1 -0.0
y58_r1 0.0
y59_r1 0.0
SH14_r1 -0.0
SL14_r1 -0.0
x60_r1 -0.0
x61_r1 1.0
x62_r1 -0.0
x63_r1 1.0
y60_r1 0.0
y61_r1 0.0
y62_r1 0.0
y63_r1 1.0
SH15_r1 1.0
SL15_r1 1.0
y0_r2 -0.0
y1_r2 0.0
y2_r2 -0.0
y3_r2 -0.0
SH0_r2 -0.0
SL0_r2 -0.0
y4_r2 -0.0
y5_r2 -0.0
y6_r2 -0.0
y7_r2 -0.0
SH1_r2 0.0
SL1_r2 0.0
y8_r2 -0.0
y9_r2 -0.0
y10_r2 -0.0
y11_r2 -1.4094520708831926e-18
SH2_r2 -1.4094520708831926e-18
SL2_r2 1.40945124370258e-18
y12_r2 -0.0
y13_r2 -0.0
y14_r2 -1.0364590280646178e-16
y15_r2 -0.0
SH3_r2 -7.155471294969537e-18
SL3_r2 -0.0
y16_r2 -0.0
y17_r2 0.0
y18_r2 -0.0
y19_r2 -0.0
SH4_r2 -0.0
SL4_r2 -0.0
y20_r2 -0.0
y21_r2 -0.0
y22_r2 1.3877745456167094e-16
y23_r2 -0.0
SH5_r2 1.2489966675385648e-16
SL5_r2 5.55107277147842e-17
y24_r2 -0.0
y25_r2 -0.0
y26_r2 3.4688910865819786e-18
y27_r2 1.908153471927125e-17
SH6_r2 1.9948896457259654e-17
SL6_r2 -0.0
y28_r2 -0.0
y29_r2 -0.0
y30_r2 -0.0
y31_r2 -0.0
SH7_r2 -0.0
SL7_r2 -0.0
y32_r2 -0.0
y33_r2 -0.0
y34_r2 -0.0
y35_r2 0.0
SH8_r2 0.0
SL8_r2 -0.0
y36_r2 -0.0
y37_r2 -0.0
y38_r2 0.0
y39_r2 0.0
SH9_r2 -0.0
SL9_r2 -0.0
y40_r2 -0.0
y41_r2 -0.0
y42_r2 0.0
y43_r2 -0.0
SH10_r2 0.0
SL10_r2 -0.0
y44_r2 -0.0
y45_r2 -0.0
y46_r2 0.0
y47_r2 -0.0
SH11_r2 0.0
SL11_r2 -0.0
y48_r2 0.9999999999999996
y49_r2 -0.0
y50_r2 0.0
y51_r2 0.9999999999999996
SH12_r2 0.9999999999999996
SL12_r2 -0.0
y52_r2 3.330660603545997e-16
y53_r2 -0.0
y54_r2 8.326651508864993e-17
y55_r2 -0.0
SH13_r2 8.326651508864993e-17
SL13_r2 8.673908547459654e-18
y56_r2 -0.0
y57_r2 -0.0
y58_r2 0.0
y59_r2 -0.0
SH14_r2 0.0
SL14_r2 0.0
y60_r2 0.9999999999999998
y61_r2 -0.0
y62_r2 2.3592874547995017e-16
y63_r2 0.9999999999999996
SH15_r2 1.0
SL15_r2 2.7755279154097375e-16
y0_r3 -0.0
y1_r3 -0.0
y2_r3 -0.0
y3_r3 -0.0
SH0_r3 -0.0
SL0_r3 -0.0
y4_r3 -0.0
y5_r3 -0.0
y6_r3 -0.0
y7_r3 -0.0
SH1_r3 -0.0
SL1_r3 -0.0
y8_r3 -0.0
y9_r3 -0.0
y10_r3 -0.0
y11_r3 -0.0
SH2_r3 -0.0
SL2_r3 -0.0
y12_r3 0.0
y13_r3 1.0
y14_r3 -0.0
y15_r3 -0.0
SH3_r3 1.0
SL3_r3 -0.0
y16_r3 -0.0
y17_r3 -0.0
y18_r3 -0.0
y19_r3 -0.0
SH4_r3 -0.0
SL4_r3 -0.0
y20_r3 -0.0
y21_r3 -0.0
y22_r3 -0.0
y23_r3 -0.0
SH5_r3 -0.0
SL5_r3 -0.0
y24_r3 -0.0
y25_r3 -0.0
y26_r3 -0.0
y27_r3 -0.0
SH6_r3 0.0
SL6_r3 -0.0
y28_r3 -0.0
y29_r3 -0.0
y30_r3 -0.0
y31_r3 -0.0
SH7_r3 0.0
SL7_r3 -0.0
y32_r3 -1.0339075265994714e-15
y33_r3 -6.071532165918825e-16
y34_r3 -2.888381026648184e-16
y35_r3 2.0816628772162482e-17
SH8_r3 -3.903128350343408e-16
SL8_r3 -0.0
y36_r3 1.2490093730327737e-16
y37_r3 1.5265481885301177e-16
y38_r3 -0.0
y39_r3 1.2489924323738286e-16
SH9_r3 1.3877703104519731e-16
SL9_r3 -0.0
y40_r3 0.0
y41_r3 0.0
y42_r3 -0.0
y43_r3 0.0
SH10_r3 0.0
SL10_r3 -0.0
y44_r3 2.2205011063918846e-16
y45_r3 3.053168374860752e-16
y46_r3 -0.0
y47_r3 2.77553638573921e-17
SH11_r3 3.053168374860752e-16
SL11_r3 1.9429495854003317e-16
y48_r3 -2.7105550620505143e-19
y49_r3 -5.420762708243756e-19
y50_r3 -0.0
y51_r3 -0.0
SH12_r3 -5.420762708243756e-19
SL12_r3 -1.1925562152850506e-18
y52_r3 2.4096560373974072e-17
y53_r3 2.0816258195248058e-17
y54_r3 -0.0
y55_r3 1.2143037862058048e-17
SH13_r3 1.9948896457259654e-17
SL13_r3 -0.0
y56_r3 0.0
y57_r3 0.0
y58_r3 -0.0
y59_r3 -0.0
SH14_r3 0.0
SL14_r3 0.0
y60_r3 -3.957072404595462e-18
y61_r3 0.9999999999999998
y62_r3 -0.0
y63_r3 -0.0
SH15_r3 0.9999999999999996
SL15_r3 -0.0
y0_r4 0.0
y1_r4 0.0
y2_r4 -0.0
y3_r4 0.0
SH0_r4 -0.0
SL0_r4 -0.0
y4_r4 -0.0
y5_r4 -0.0
y6_r4 -0.0
y7_r4 -0.0
SH1_r4 0.0
SL1_r4 -0.0
y8_r4 -1.162113189933229e-18
y9_r4 1.3877745456167094e-16
y10_r4 0.0
y11_r4 -0.0
SH2_r4 2.2205011063918846e-16
SL2_r4 -0.0
y12_r4 1.2452905975073795e-17
y13_r4 -0.0
y14_r4 -0.0
y15_r4 -0.0
SH3_r4 -3.794538858854305e-18
SL3_r4 -0.0
y16_r4 1.0
y17_r4 2.775693086834452e-16
y18_r4 1.3183898417423734e-16
y19_r4 1.0
SH4_r4 1.0
SL4_r4 -0.0
y20_r4 -0.0
y21_r4 -0.0
y22_r4 -0.0
y23_r4 -0.0
SH5_r4 -0.0
SL5_r4 -0.0
y24_r4 -5.550776309946881e-17
y25_r4 -2.2203105239787524e-16
y26_r4 -3.330677544204942e-16
y27_r4 -5.550776309946881e-17
SH6_r4 -5.55060690335743e-17
SL6_r4 -0.0
y28_r4 0.9999999999999999
y29_r4 5.550844072582661e-16
y30_r4 1.6940658945086007e-21
y31_r4 1.0
SH7_r4 1.0
SL7_r4 -0.0
y32_r4 0.0
y33_r4 0.0
y34_r4 -0.0
y35_r4 0.0
SH8_r4 0.0
SL8_r4 -0.0
y36_r4 0.0
y37_r4 0.0
y38_r4 0.0
y39_r4 0.0
SH9_r4 -0.0
SL9_r4 -0.0
y40_r4 -3.0359050493023213e-18
y41_r4 2.862358586321756e-16
y42_r4 -0.0
y43_r4 6.296645399158191e-17
SH10_r4 6.296645399158191e-17
SL10_r4 -0.0
y44_r4 -1.3878423082524897e-17
y45_r4 -1.6654107699029877e-16
y46_r4 -0.0
y47_r4 -0.0
SH11_r4 -5.551411584657322e-17
SL11_r4 -5.551411584657322e-17
y48_r4 -0.0
y49_r4 -0.0
y50_r4 -0.0
y51_r4 -0.0
SH12_r4 -0.0
SL12_r4 -0.0
y52_r4 0.0
y53_r4 -0.0
y54_r4 -0.0
y55_r4 -0.0
SH13_r4 -0.0
SL13_r4 -0.0
y56_r4 -1.734723475976807e-17
y57_r4 9.71445146547012e-17
y58_r4 0.0
y59_r4 -0.0
SH14_r4 2.77553638573921e-17
SL14_r4 -0.0
y60_r4 1.0408234976742436e-17
y61_r4 2.0816575832603278e-17
y62_r4 -0.0
y63_r4 -0.0
SH15_r4 8.673564440324832e-18
SL15_r4 1.1275702593849246e-17
y0_r5 1.1290792798065263e-17
y1_r5 -1.2646027354472758e-18
y2_r5 -0.0
y3_r5 0.0
SH0_r5 5.2193446685267944e-18
SL0_r5 -0.0
y4_r5 1.3877618401225006e-16
y5_r5 1.0
y6_r5 -0.0
y7_r5 5.551792749483586e-17
SH1_r5 1.0
SL1_r5 -0.0
y8_r5 -1.5613358316738518e-17
y9_r5 -8.674093835916866e-18
y10_r5 -0.0
y11_r5 -0.0
SH2_r5 -1.2143673136768489e-17
SL2_r5 -2.818965353131714e-18
y12_r5 -1.734723475976807e-17
y13_r5 -3.122502256758253e-17
y14_r5 -0.0
y15_r5 -0.0
SH3_r5 -1.734723475976807e-17
SL3_r5 -8.673617379884035e-18
y16_r5 -0.0
y17_r5 1.3877745456167094e-16
y18_r5 1.2489966675385648e-16
y19_r5 -0.0
SH4_r5 1.3877745456167094e-16
SL4_r5 1.0408256152566117e-16
y20_r5 -0.0
y21_r5 7.216500482040353e-16
y22_r5 2.498137330678163e-16
y23_r5 -0.0
SH5_r5 2.498137330678163e-16
SL5_r5 -2.220581574521874e-16
y24_r5 -0.0
y25_r5 1.1102103191309477e-16
y26_r5 1.2489966675385648e-16
y27_r5 0.0
SH6_r5 1.1102187894604203e-16
SL6_r5 2.792973617749624e-16
y28_r5 -0.0
y29_r5 9.714409113822757e-17
y30_r5 1.249000902703301e-16
y31_r5 0.0
SH7_r5 1.249000902703301e-16
SL7_r5 9.714409113822757e-17
y32_r5 -0.0
y33_r5 0.0
y34_r5 0.0
y35_r5 -0.0
SH8_r5 0.0
SL8_r5 0.0
y36_r5 8.326503278099223e-17
y37_r5 -0.0
y38_r5 -8.325317431973067e-17
y39_r5 1.1102230246251565e-16
SH9_r5 -8.325317431973067e-17
SL9_r5 -5.551013479172112e-16
y40_r5 -0.0
y41_r5 0.0
y42_r5 0.0
y43_r5 -0.0
SH10_r5 -0.0
SL10_r5 -0.0
y44_r5 0.0
y45_r5 0.0
y46_r5 0.0
y47_r5 -0.0
SH11_r5 0.0
SL11_r5 0.0
y48_r5 -0.0
y49_r5 0.0
y50_r5 -0.0
y51_r5 -0.0
SH12_r5 -0.0
SL12_r5 -0.0
y52_r5 1.8041039446864068e-16
y53_r5 0.9999999999999998
y54_r5 2.4982728559497236e-16
y55_r5 -0.0
SH13_r5 1.0
SL13_r5 -0.0
y56_r5 2.5684971812330254e-16
y57_r5 -0.0
y58_r5 -0.0
y59_r5 -0.0
SH14_r5 5.768014122010252e-17
SL14_r5 -0.0
y60_r5 -0.0
y61_r5 -0.0
y62_r5 -0.0
y63_r5 -0.0
SH15_r5 -0.0
SL15_r5 -0.0
y0_r6 -0.0
y1_r6 2.775549091233419e-16
y2_r6 -0.0
y3_r6 8.326503278099223e-17
SH0_r6 8.326503278099223e-17
SL0_r6 -8.153094457972587e-17
y4_r6 -0.0
y5_r6 0.0
y6_r6 -0.0
y7_r6 -0.0
SH1_r6 -0.0
SL1_r6 -0.0
y8_r6 -0.0
y9_r6 8.326503278099223e-17
y10_r6 -0.0
y11_r6 8.326503278099223e-17
SH2_r6 8.326503278099223e-17
SL2_r6 -0.0
y12_r6 -0.0
y13_r6 4.302122690751954e-16
y14_r6 -0.0
y15_r6 5.5509880681836946e-17
SH3_r6 3.0531260232133893e-16
SL3_r6 -0.0
y16_r6 -1.457167719820518e-16
y17_r6 0.9999999999999998
y18_r6 0.0
y19_r6 1.0
SH4_r6 1.0
SL4_r6 -0.0
y20_r6 7.216500482040353e-16
y21_r6 7.216737651265584e-16
y22_r6 -0.0
y23_r6 7.216229431497231e-16
SH5_r6 7.216500482040353e-16
SL5_r6 -0.0
y24_r6 0.0
y25_r6 0.0
y26_r6 -0.0
y27_r6 -0.0
SH6_r6 0.0
SL6_r6 0.0
y28_r6 -7.91033905045424e-16
y29_r6 0.9999999999999998
y30_r6 0.0
y31_r6 1.0
SH7_r6 1.0
SL7_r6 1.795434033075667e-16
y32_r6 -0.0
y33_r6 -0.0
y34_r6 -0.0
y35_r6 -0.0
SH8_r6 -0.0
SL8_r6 -0.0
y36_r6 -0.0
y37_r6 2.7758286121060127e-16
y38_r6 5.13505253943447e-16
y39_r6 -0.0
SH9_r6 5.13491701416291e-16
SL9_r6 2.775693086834452e-16
y40_r6 -0.0
y41_r6 -8.32599505833087e-17
y42_r6 -8.32599505833087e-17
y43_r6 -0.0
SH10_r6 -8.32599505833087e-17
SL10_r6 -8.32599505833087e-17
y44_r6 -0.0
y45_r6 2.4982728559497236e-16
y46_r6 2.7758286121060127e-16
y47_r6 -0.0
SH11_r6 2.4982728559497236e-16
SL11_r6 2.4982728559497236e-16
y48_r6 2.776235187920695e-17
y49_r6 0.0
y50_r6 6.776263578034403e-21
y51_r6 -0.0
SH12_r6 2.776235187920695e-17
SL12_r6 6.776263578034403e-21
y52_r6 0.0
y53_r6 0.0
y54_r6 -0.0
y55_r6 -0.0
SH13_r6 0.0
SL13_r6 0.0
y56_r6 1.1102230246251565e-16
y57_r6 0.0
y58_r6 1.1102569059430467e-16
y59_r6 -0.0
SH14_r6 1.1101891433072664e-16
SL14_r6 1.1101891433072664e-16
y60_r6 0.0
y61_r6 -0.0
y62_r6 0.0
y63_r6 -0.0
SH15_r6 -0.0
SL15_r6 -0.0
y0_r7 -0.0
y1_r7 -0.0
y2_r7 -0.0
y3_r7 -0.0
SH0_r7 -0.0
SL0_r7 -0.0
y4_r7 -0.0
y5_r7 1.6652244226545918e-16
y6_r7 -1.5265566588595902e-16
y7_r7 0.0
SH1_r7 -1.5265566588595902e-16
SL1_r7 -1.0061396160665481e-15
y8_r7 -0.0
y9_r7 -0.0
y10_r7 -0.0
y11_r7 -0.0
SH2_r7 -0.0
SL2_r7 -0.0
y12_r7 0.0
y13_r7 1.6652244226545918e-16
y14_r7 1.1101891433072664e-16
y15_r7 -0.0
SH3_r7 1.1102569059430467e-16
SL3_r7 1.1102569059430467e-16
y16_r7 -1.942907233752969e-16
y17_r7 2.775549091233419e-16
y18_r7 -0.0
y19_r7 -0.0
SH4_r7 2.7755575615628914e-16
SL4_r7 -1.6653430072672074e-16
y20_r7 -2.7755745022218364e-16
y21_r7 1.0
y22_r7 -0.0
y23_r7 0.0
SH5_r7 0.9999999999999998
SL5_r7 -0.0
y24_r7 -2.7755745022218364e-16
y25_r7 5.169611483682446e-16
y26_r7 -0.0
y27_r7 -0.0
SH6_r7 2.7758286121060127e-16
SL6_r7 4.441298674315308e-16
y28_r7 0.0
y29_r7 0.0
y30_r7 -0.0
y31_r7 -0.0
SH7_r7 0.0
SL7_r7 -0.0
y32_r7 -0.0
y33_r7 -0.0
y34_r7 -0.0
y35_r7 -0.0
SH8_r7 -0.0
SL8_r7 -0.0
y36_r7 -0.0
y37_r7 -0.0
y38_r7 -0.0
y39_r7 -0.0
SH9_r7 -0.0
SL9_r7 -0.0
y40_r7 1.66438586003681e-16
y41_r7 -7.354685437055419e-16
y42_r7 -7.795413620170777e-17
y43_r7 8.326130583602431e-16
SH10_r7 -7.800834631033204e-17
SL10_r7 -7.354685437055419e-16
y44_r7 6.246359766232112e-17
y45_r7 1.110121380671486e-16
y46_r7 2.7754220362913307e-16
y47_r7 2.7754220362913307e-16
SH11_r7 2.77528651101977e-16
SL11_r7 1.7346557133410268e-16
y48_r7 -0.0
y49_r7 1.6652837149608996e-16
y50_r7 -0.0
y51_r7 -0.0
SH12_r7 8.326503278099223e-17
SL12_r7 2.7754940340918473e-17
y52_r7 -0.0
y53_r7 0.9999999999999994
y54_r7 -2.2985086056692694e-17
y55_r7 0.0
SH13_r7 1.0
SL13_r7 -0.0
y56_r7 -0.0
y57_r7 -0.0
y58_r7 -0.0
y59_r7 -0.0
SH14_r7 -0.0
SL14_r7 -0.0
y60_r7 -0.0
y61_r7 -0.0
y62_r7 -0.0
y63_r7 -0.0
SH15_r7 -0.0
SL15_r7 -0.0
y0_r8 -0.0
y1_r8 -0.0
y2_r8 -0.0
y3_r8 -0.0
SH0_r8 0.0
SL0_r8 -0.0
y4_r8 -0.0
y5_r8 -2.775566031892364e-16
y6_r8 -0.0
y7_r8 -0.0
SH1_r8 -2.7755745022218364e-16
SL1_r8 -9.714536168764845e-17
y8_r8 0.0
y9_r8 7.107114647231932e-17
y10_r8 0.0
y11_r8 8.668873995379411e-17
SH2_r8 1.6296913905172739e-16
SL2_r8 7.193681414441322e-17
y12_r8 0.0
y13_r8 0.0
y14_r8 -0.0
y15_r8 -0.0
SH3_r8 -0.0
SL3_r8 -0.0
y16_r8 -1.0164395367051604e-20
y17_r8 1.6652244226545918e-16
y18_r8 -0.0
y19_r8 -0.0
SH4_r8 2.22033593496717e-16
SL4_r8 -0.0
y20_r8 2.7765740010995965e-17
y21_r8 0.9999999999999999
y22_r8 0.0
y23_r8 1.0000000000000002
SH5_r8 1.0
SL5_r8 -2.2203782866145327e-16
y24_r8 -8.327011497867576e-17
y25_r8 0.0
y26_r8 0.0
y27_r8 0.0
SH6_r8 -0.0
SL6_r8 -4.440892098500626e-16
y28_r8 -6.938385684138876e-17
y29_r8 0.9999999999999996
y30_r8 -0.0
y31_r8 1.0
SH7_r8 0.9999999999999996
SL7_r8 -0.0
y32_r8 -2.5673907444456745e-16
y33_r8 -1.5265566588595902e-16
y34_r8 0.0
y35_r8 -9.020562075079397e-17
SH8_r8 -1.5265566588595902e-16
SL8_r8 -3.5388358909926865e-16
y36_r8 -0.0
y37_r8 0.0
y38_r8 0.0
y39_r8 -0.0
SH9_r8 0.0
SL9_r8 -0.0
y40_r8 -9.71445146547012e-17
y41_r8 2.7755575615628914e-17
y42_r8 -0.0
y43_r8 -9.020562075079397e-17
SH10_r8 2.0816681711721685e-17
SL10_r8 -3.480288973678469e-17
y44_r8 -6.418476861114186e-17
y45_r8 -6.331740687315346e-17
y46_r8 -0.0
y47_r8 -8.673617379884035e-17
SH11_r8 -6.331740687315346e-17
SL11_r8 -0.0
y48_r8 0.0
y49_r8 0.0
y50_r8 0.0
y51_r8 0.0
SH12_r8 0.0
SL12_r8 -0.0
y52_r8 -0.0
y53_r8 0.0
y54_r8 0.0
y55_r8 -0.0
SH13_r8 0.0
SL13_r8 -0.0
y56_r8 2.77528651101977e-16
y57_r8 5.550844072582661e-16
y58_r8 2.77528651101977e-16
y59_r8 0.0
SH14_r8 8.326130583602431e-16
SL14_r8 5.550844072582661e-16
y60_r8 0.0
y61_r8 0.0
y62_r8 -0.0
y63_r8 -0.0
SH15_r8 -0.0
SL15_r8 -0.0
y0_r9 -0.0
y1_r9 0.0
y2_r9 -0.0
y3_r9 -0.0
SH0_r9 0.0
SL0_r9 -0.0
y4_r9 -0.0
y5_r9 5.552300969251939e-17
y6_r9 -0.0
y7_r9 4.164352781881042e-17
SH1_r9 4.164352781881042e-17
SL1_r9 -0.0
y8_r9 -1.3444106938820255e-17
y9_r9 -8.847089727481716e-17
y10_r9 -6.852157730108388e-17
y11_r9 -1.700029006457271e-16
SH2_r9 -2.5326962749261384e-16
SL2_r9 -0.0
y12_r9 -0.0
y13_r9 2.498001805406602e-16
y14_r9 0.0
y15_r9 2.7058975719806977e-16
SH3_r9 2.7058975719806977e-16
SL3_r9 -0.0
y16_r9 -0.0
y17_r9 7.107453460410834e-17
y18_r9 -3.3307453068407225e-16
y19_r9 7.107453460410834e-17
SH4_r9 7.107284053821383e-17
SL4_r9 -0.0
y20_r9 1.0
y21_r9 1.0
y22_r9 -0.0
y23_r9 -0.0
SH5_r9 1.0
SL5_r9 -0.0
y24_r9 -1.9984014443252818e-15
y25_r9 -2.1094237467877974e-15
y26_r9 -0.0
y27_r9 -1.9984014443252818e-15
SH6_r9 -2.1094237467877974e-15
SL6_r9 -1.6653345369377348e-16
y28_r9 -0.0
y29_r9 5.412337245047638e-16
y30_r9 -0.0
y31_r9 5.551115123125783e-16
SH7_r9 5.550844072582661e-16
SL7_r9 -0.0
y32_r9 -0.0
y33_r9 0.0
y34_r9 -0.0
y35_r9 -0.0
SH8_r9 -0.0
SL8_r9 -0.0
y36_r9 -0.0
y37_r9 0.0
y38_r9 -0.0
y39_r9 -0.0
SH9_r9 0.0
SL9_r9 -0.0
y40_r9 0.0
y41_r9 -0.0
y42_r9 -0.0
y43_r9 0.0
SH10_r9 0.0
SL10_r9 -0.0
y44_r9 2.0813971206290471e-16
y45_r9 2.15092158493968e-16
y46_r9 -0.0
y47_r9 -0.0
SH11_r9 2.77528651101977e-16
SL11_r9 2.77528651101977e-16
y48_r9 -0.0
y49_r9 7.975662231346492e-17
y50_r9 -0.0
y51_r9 8.668873995379411e-17
SH12_r9 8.668873995379411e-17
SL12_r9 0.0
y52_r9 1.0
y53_r9 0.0
y54_r9 1.0
y55_r9 -0.0
SH13_r9 1.0
SL13_r9 1.0
y56_r9 -5.2909066017292616e-17
y57_r9 1.734723475976807e-17
y58_r9 1.734723475976807e-18
y59_r9 -0.0
SH14_r9 -9.020562075079397e-17
SL14_r9 -0.0
y60_r9 -0.0
y61_r9 0.0
y62_r9 0.0
y63_r9 -0.0
SH15_r9 -0.0
SL15_r9 -0.0
